tsp_instances/TSP50/instance37.tsp
NODE_COORD_SECTION
0 125 87
1 3 193
2 60 172
3 10 109
4 8 87
5 166 4
6 33 181
7 155 80
8 136 142
9 22 9
10 122 107
11 121 92
12 159 125
13 132 175
14 189 27
15 179 74
16 14 100
17 17 15
18 19 155
19 60 165
20 178 161
21 137 108
22 124 18
23 125 115
24 184 113
25 184 89
26 187 142
27 63 51
28 86 139
29 16 188
30 34 142
31 170 4
32 197 130
33 182 108
34 96 113
35 169 107
36 52 76
37 47 143
38 58 87
39 128 160
40 39 87
41 193 12
42 137 163
43 137 191
44 113 138
45 183 181
46 144 37
47 110 172
48 128 135
49 78 4
