tsp_instances/TSP50/instance37.opt.tour
TOUR_SECTION
1
8
26
16
15
42
32
6
47
23
50
10
18
28
37
39
41
5
17
4
38
31
19
2
30
7
3
20
29
35
45
49
9
43
40
48
14
44
46
21
27
33
25
34
36
13
22
24
11
12
-1